-148.0 4.0 5.0 5.0 2.0 8.0 6.0 8.0 8.0 9.0 0.0 7.0 6.0 6.0 9.0 10.0 8.0 1.0 6.0 8.0 2.0 5.0 1.0 2.0 7.0 9.0 1.0 5.0 
4.0 -152.0 6.0 2.0 8.0 8.0 9.0 9.0 9.0 6.0 2.0 1.0 8.0 8.0 7.0 6.0 4.0 8.0 10.0 8.0 4.0 2.0 2.0 10.0 3.0 2.0 6.0 0.0 
5.0 6.0 -142.0 8.0 10.0 5.0 8.0 9.0 3.0 2.0 0.0 9.0 6.0 1.0 3.0 5.0 10.0 9.0 1.0 2.0 9.0 2.0 6.0 6.0 2.0 8.0 3.0 4.0 
5.0 2.0 8.0 -154.0 3.0 9.0 8.0 3.0 3.0 3.0 9.0 8.0 2.0 9.0 10.0 9.0 7.0 4.0 2.0 3.0 2.0 8.0 8.0 7.0 6.0 7.0 8.0 1.0 
2.0 8.0 10.0 3.0 -180.0 0.0 10.0 5.0 10.0 9.0 9.0 8.0 6.0 0.0 6.0 3.0 9.0 8.0 6.0 5.0 10.0 10.0 5.0 8.0 8.0 4.0 9.0 9.0 
8.0 8.0 5.0 9.0 0.0 -120.0 0.0 4.0 10.0 7.0 4.0 5.0 8.0 6.0 1.0 7.0 2.0 3.0 10.0 2.0 7.0 1.0 1.0 0.0 3.0 2.0 6.0 1.0 
6.0 9.0 8.0 8.0 10.0 0.0 -148.0 7.0 3.0 8.0 4.0 8.0 10.0 5.0 3.0 0.0 6.0 8.0 5.0 10.0 1.0 8.0 0.0 9.0 2.0 5.0 4.0 1.0 
8.0 9.0 9.0 3.0 5.0 4.0 7.0 -149.0 7.0 10.0 4.0 9.0 9.0 1.0 10.0 3.0 5.0 0.0 7.0 9.0 6.0 0.0 3.0 0.0 3.0 10.0 7.0 1.0 
8.0 9.0 3.0 3.0 10.0 10.0 3.0 7.0 -134.0 9.0 8.0 3.0 0.0 7.0 2.0 0.0 8.0 2.0 2.0 6.0 7.0 6.0 1.0 4.0 1.0 10.0 0.0 5.0 
9.0 6.0 2.0 3.0 9.0 7.0 8.0 10.0 9.0 -123.0 0.0 0.0 4.0 7.0 5.0 7.0 2.0 3.0 3.0 2.0 4.0 6.0 6.0 0.0 2.0 1.0 2.0 6.0 
0.0 2.0 0.0 9.0 9.0 4.0 4.0 4.0 8.0 0.0 -122.0 5.0 5.0 4.0 8.0 5.0 6.0 6.0 0.0 5.0 9.0 5.0 0.0 3.0 8.0 7.0 4.0 2.0 
7.0 1.0 9.0 8.0 8.0 5.0 8.0 9.0 3.0 0.0 5.0 -158.0 9.0 1.0 9.0 6.0 1.0 0.0 5.0 4.0 8.0 7.0 6.0 3.0 10.0 8.0 9.0 9.0 
6.0 8.0 6.0 2.0 6.0 8.0 10.0 9.0 0.0 4.0 5.0 9.0 -120.0 6.0 5.0 4.0 3.0 5.0 0.0 1.0 2.0 4.0 1.0 1.0 0.0 6.0 0.0 9.0 
6.0 8.0 1.0 9.0 0.0 6.0 5.0 1.0 7.0 7.0 4.0 1.0 6.0 -148.0 2.0 6.0 8.0 7.0 6.0 3.0 10.0 7.0 7.0 6.0 4.0 7.0 5.0 9.0 
9.0 7.0 3.0 10.0 6.0 1.0 3.0 10.0 2.0 5.0 8.0 9.0 5.0 2.0 -140.0 6.0 1.0 2.0 2.0 9.0 10.0 3.0 5.0 0.0 8.0 5.0 2.0 7.0 
10.0 6.0 5.0 9.0 3.0 7.0 0.0 3.0 0.0 7.0 5.0 6.0 4.0 6.0 6.0 -133.0 6.0 10.0 4.0 1.0 6.0 1.0 8.0 4.0 2.0 6.0 1.0 7.0 
8.0 4.0 10.0 7.0 9.0 2.0 6.0 5.0 8.0 2.0 6.0 1.0 3.0 8.0 1.0 6.0 -139.0 3.0 4.0 5.0 3.0 7.0 9.0 6.0 2.0 8.0 5.0 1.0 
1.0 8.0 9.0 4.0 8.0 3.0 8.0 0.0 2.0 3.0 6.0 0.0 5.0 7.0 2.0 10.0 3.0 -139.0 4.0 9.0 7.0 7.0 9.0 3.0 10.0 0.0 9.0 2.0 
6.0 10.0 1.0 2.0 6.0 10.0 5.0 7.0 2.0 3.0 0.0 5.0 0.0 6.0 2.0 4.0 4.0 4.0 -112.0 3.0 5.0 9.0 3.0 6.0 2.0 1.0 6.0 0.0 
8.0 8.0 2.0 3.0 5.0 2.0 10.0 9.0 6.0 2.0 5.0 4.0 1.0 3.0 9.0 1.0 5.0 9.0 3.0 -140.0 9.0 0.0 1.0 4.0 8.0 4.0 9.0 10.0 
2.0 4.0 9.0 2.0 10.0 7.0 1.0 6.0 7.0 4.0 9.0 8.0 2.0 10.0 10.0 6.0 3.0 7.0 5.0 9.0 -156.0 0.0 2.0 3.0 8.0 10.0 10.0 2.0 
5.0 2.0 2.0 8.0 10.0 1.0 8.0 0.0 6.0 6.0 5.0 7.0 4.0 7.0 3.0 1.0 7.0 7.0 9.0 0.0 0.0 -125.0 6.0 2.0 0.0 10.0 3.0 6.0 
1.0 2.0 6.0 8.0 5.0 1.0 0.0 3.0 1.0 6.0 0.0 6.0 1.0 7.0 5.0 8.0 9.0 9.0 3.0 1.0 2.0 6.0 -118.0 6.0 6.0 2.0 7.0 7.0 
2.0 10.0 6.0 7.0 8.0 0.0 9.0 0.0 4.0 0.0 3.0 3.0 1.0 6.0 0.0 4.0 6.0 3.0 6.0 4.0 3.0 2.0 6.0 -111.0 2.0 9.0 5.0 2.0 
7.0 3.0 2.0 6.0 8.0 3.0 2.0 3.0 1.0 2.0 8.0 10.0 0.0 4.0 8.0 2.0 2.0 10.0 2.0 8.0 8.0 0.0 6.0 2.0 -121.0 3.0 1.0 10.0 
9.0 2.0 8.0 7.0 4.0 2.0 5.0 10.0 10.0 1.0 7.0 8.0 6.0 7.0 5.0 6.0 8.0 0.0 1.0 4.0 10.0 10.0 2.0 9.0 3.0 -153.0 6.0 3.0 
1.0 6.0 3.0 8.0 9.0 6.0 4.0 7.0 0.0 2.0 4.0 9.0 0.0 5.0 2.0 1.0 5.0 9.0 6.0 9.0 10.0 3.0 7.0 5.0 1.0 6.0 -130.0 2.0 
5.0 0.0 4.0 1.0 9.0 1.0 1.0 1.0 5.0 6.0 2.0 9.0 9.0 9.0 7.0 7.0 1.0 2.0 0.0 10.0 2.0 6.0 7.0 2.0 10.0 3.0 2.0 -121.0 

